\ Model JobShopModel
\ LP format - for model browsing. Use MPS format to capture full model detail.
Minimize
  0 x[0,0,0,0] + 0 x[0,0,0,1] + 0 x[0,0,0,2] + 0 x[0,0,0,3] + 0 x[0,0,0,4]
   + 0 x[0,0,1,0] + 0 x[0,0,1,2] + 0 x[0,0,1,3] + 0 x[0,0,1,4]
   + 0 x[0,0,2,0] + 0 x[0,0,2,1] + 0 x[0,0,2,2] + 0 x[0,0,2,4]
   + 0 x[0,0,3,0] + 0 x[0,0,3,1] + 0 x[0,0,3,2] + 0 x[0,0,3,3]
   + 0 x[0,0,4,0] + 0 x[0,0,4,1] + 0 x[0,0,4,2] + 0 x[0,0,4,3]
   + 0 x[0,0,4,4] + 0 x[0,1,0,0] + 0 x[0,1,0,1] + 0 x[0,1,0,2]
   + 0 x[0,1,0,3] + 0 x[0,1,0,4] + 0 x[0,1,1,0] + 0 x[0,1,1,1]
   + 0 x[0,1,1,2] + 0 x[0,1,1,4] + 0 x[0,1,2,1] + 0 x[0,1,2,2]
   + 0 x[0,1,2,3] + 0 x[0,1,2,4] + 0 x[0,1,3,1] + 0 x[0,1,3,2]
   + 0 x[0,1,3,3] + 0 x[0,1,4,1] + 0 x[0,1,4,3] + 0 x[0,1,4,4]
   + 0 x[0,2,0,0] + 0 x[0,2,0,1] + 0 x[0,2,0,2] + 0 x[0,2,0,3]
   + 0 x[0,2,0,4] + 0 x[0,2,1,0] + 0 x[0,2,1,1] + 0 x[0,2,1,3]
   + 0 x[0,2,1,4] + 0 x[0,2,2,0] + 0 x[0,2,2,2] + 0 x[0,2,2,3]
   + 0 x[0,2,2,4] + 0 x[0,2,3,0] + 0 x[0,2,3,1] + 0 x[0,2,3,3]
   + 0 x[0,2,4,0] + 0 x[0,2,4,1] + 0 x[0,2,4,2] + 0 x[0,2,4,4]
   + 0 x[0,3,0,0] + 0 x[0,3,0,1] + 0 x[0,3,0,2] + 0 x[0,3,0,3]
   + 0 x[0,3,0,4] + 0 x[0,3,1,1] + 0 x[0,3,1,2] + 0 x[0,3,1,3]
   + 0 x[0,3,1,4] + 0 x[0,3,2,0] + 0 x[0,3,2,1] + 0 x[0,3,2,3]
   + 0 x[0,3,2,4] + 0 x[0,3,3,0] + 0 x[0,3,3,2] + 0 x[0,3,3,3]
   + 0 x[0,3,4,0] + 0 x[0,3,4,2] + 0 x[0,3,4,3] + 0 x[0,3,4,4]
   + 0 x[0,4,0,0] + 0 x[0,4,0,1] + 0 x[0,4,0,2] + 0 x[0,4,0,3]
   + 0 x[0,4,0,4] + 0 x[0,4,1,0] + 0 x[0,4,1,1] + 0 x[0,4,1,2]
   + 0 x[0,4,1,3] + 0 x[0,4,2,0] + 0 x[0,4,2,1] + 0 x[0,4,2,2]
   + 0 x[0,4,2,3] + 0 x[0,4,3,0] + 0 x[0,4,3,1] + 0 x[0,4,3,2]
   + 0 x[0,4,4,0] + 0 x[0,4,4,1] + 0 x[0,4,4,2] + 0 x[0,4,4,3]
   + 0 x[1,0,0,0] + 0 x[1,0,0,1] + 0 x[1,0,0,2] + 0 x[1,0,0,3]
   + 0 x[1,0,0,4] + 0 x[1,0,1,0] + 0 x[1,0,1,1] + 0 x[1,0,1,2]
   + 0 x[1,0,1,3] + 0 x[1,0,1,4] + 0 x[1,0,2,0] + 0 x[1,0,2,1]
   + 0 x[1,0,2,3] + 0 x[1,0,2,4] + 0 x[1,0,3,0] + 0 x[1,0,3,2]
   + 0 x[1,0,3,3] + 0 x[1,0,4,0] + 0 x[1,0,4,2] + 0 x[1,0,4,3]
   + 0 x[1,0,4,4] + 0 x[1,1,0,0] + 0 x[1,1,0,1] + 0 x[1,1,0,2]
   + 0 x[1,1,0,3] + 0 x[1,1,0,4] + 0 x[1,1,1,0] + 0 x[1,1,1,1]
   + 0 x[1,1,1,2] + 0 x[1,1,1,3] + 0 x[1,1,1,4] + 0 x[1,1,2,0]
   + 0 x[1,1,2,1] + 0 x[1,1,2,2] + 0 x[1,1,2,4] + 0 x[1,1,3,0]
   + 0 x[1,1,3,1] + 0 x[1,1,3,2] + 0 x[1,1,3,3] + 0 x[1,1,4,0]
   + 0 x[1,1,4,1] + 0 x[1,1,4,2] + 0 x[1,1,4,3] + 0 x[1,1,4,4]
   + 0 x[1,2,0,0] + 0 x[1,2,0,1] + 0 x[1,2,0,2] + 0 x[1,2,0,3]
   + 0 x[1,2,0,4] + 0 x[1,2,1,0] + 0 x[1,2,1,1] + 0 x[1,2,1,2]
   + 0 x[1,2,1,3] + 0 x[1,2,1,4] + 0 x[1,2,2,0] + 0 x[1,2,2,2]
   + 0 x[1,2,2,3] + 0 x[1,2,2,4] + 0 x[1,2,3,0] + 0 x[1,2,3,1]
   + 0 x[1,2,3,3] + 0 x[1,2,4,0] + 0 x[1,2,4,1] + 0 x[1,2,4,2]
   + 0 x[1,2,4,4] + 0 x[1,3,0,0] + 0 x[1,3,0,1] + 0 x[1,3,0,2]
   + 0 x[1,3,0,3] + 0 x[1,3,0,4] + 0 x[1,3,1,0] + 0 x[1,3,1,1]
   + 0 x[1,3,1,2] + 0 x[1,3,1,3] + 0 x[1,3,1,4] + 0 x[1,3,2,1]
   + 0 x[1,3,2,2] + 0 x[1,3,2,3] + 0 x[1,3,2,4] + 0 x[1,3,3,1]
   + 0 x[1,3,3,2] + 0 x[1,3,3,3] + 0 x[1,3,4,1] + 0 x[1,3,4,3]
   + 0 x[1,3,4,4] + 0 x[1,4,0,0] + 0 x[1,4,0,1] + 0 x[1,4,0,2]
   + 0 x[1,4,0,3] + 0 x[1,4,0,4] + 0 x[1,4,1,0] + 0 x[1,4,1,1]
   + 0 x[1,4,1,2] + 0 x[1,4,1,3] + 0 x[1,4,1,4] + 0 x[1,4,2,0]
   + 0 x[1,4,2,1] + 0 x[1,4,2,2] + 0 x[1,4,2,3] + 0 x[1,4,3,0]
   + 0 x[1,4,3,1] + 0 x[1,4,3,2] + 0 x[1,4,4,0] + 0 x[1,4,4,1]
   + 0 x[1,4,4,2] + 0 x[1,4,4,3] + 0 x[2,0,0,0] + 0 x[2,0,0,1]
   + 0 x[2,0,0,2] + 0 x[2,0,0,3] + 0 x[2,0,0,4] + 0 x[2,0,1,0]
   + 0 x[2,0,1,1] + 0 x[2,0,1,2] + 0 x[2,0,1,3] + 0 x[2,0,1,4]
   + 0 x[2,0,2,0] + 0 x[2,0,2,1] + 0 x[2,0,2,2] + 0 x[2,0,2,3]
   + 0 x[2,0,2,4] + 0 x[2,0,3,1] + 0 x[2,0,3,2] + 0 x[2,0,3,3]
   + 0 x[2,0,4,1] + 0 x[2,0,4,3] + 0 x[2,0,4,4] + 0 x[2,1,0,0]
   + 0 x[2,1,0,1] + 0 x[2,1,0,2] + 0 x[2,1,0,3] + 0 x[2,1,0,4]
   + 0 x[2,1,1,0] + 0 x[2,1,1,1] + 0 x[2,1,1,2] + 0 x[2,1,1,3]
   + 0 x[2,1,1,4] + 0 x[2,1,2,0] + 0 x[2,1,2,1] + 0 x[2,1,2,2]
   + 0 x[2,1,2,3] + 0 x[2,1,2,4] + 0 x[2,1,3,0] + 0 x[2,1,3,1]
   + 0 x[2,1,3,3] + 0 x[2,1,4,0] + 0 x[2,1,4,1] + 0 x[2,1,4,2]
   + 0 x[2,1,4,4] + 0 x[2,2,0,0] + 0 x[2,2,0,1] + 0 x[2,2,0,2]
   + 0 x[2,2,0,3] + 0 x[2,2,0,4] + 0 x[2,2,1,0] + 0 x[2,2,1,1]
   + 0 x[2,2,1,2] + 0 x[2,2,1,3] + 0 x[2,2,1,4] + 0 x[2,2,2,0]
   + 0 x[2,2,2,1] + 0 x[2,2,2,2] + 0 x[2,2,2,3] + 0 x[2,2,2,4]
   + 0 x[2,2,3,0] + 0 x[2,2,3,2] + 0 x[2,2,3,3] + 0 x[2,2,4,0]
   + 0 x[2,2,4,2] + 0 x[2,2,4,3] + 0 x[2,2,4,4] + 0 x[2,3,0,0]
   + 0 x[2,3,0,1] + 0 x[2,3,0,2] + 0 x[2,3,0,3] + 0 x[2,3,0,4]
   + 0 x[2,3,1,0] + 0 x[2,3,1,1] + 0 x[2,3,1,2] + 0 x[2,3,1,3]
   + 0 x[2,3,1,4] + 0 x[2,3,2,0] + 0 x[2,3,2,1] + 0 x[2,3,2,2]
   + 0 x[2,3,2,3] + 0 x[2,3,2,4] + 0 x[2,3,3,0] + 0 x[2,3,3,1]
   + 0 x[2,3,3,2] + 0 x[2,3,3,3] + 0 x[2,3,4,0] + 0 x[2,3,4,1]
   + 0 x[2,3,4,2] + 0 x[2,3,4,3] + 0 x[2,3,4,4] + 0 x[2,4,0,0]
   + 0 x[2,4,0,1] + 0 x[2,4,0,2] + 0 x[2,4,0,3] + 0 x[2,4,0,4]
   + 0 x[2,4,1,0] + 0 x[2,4,1,1] + 0 x[2,4,1,2] + 0 x[2,4,1,3]
   + 0 x[2,4,1,4] + 0 x[2,4,2,0] + 0 x[2,4,2,1] + 0 x[2,4,2,2]
   + 0 x[2,4,2,3] + 0 x[2,4,2,4] + 0 x[2,4,3,0] + 0 x[2,4,3,1]
   + 0 x[2,4,3,2] + 0 x[2,4,4,0] + 0 x[2,4,4,1] + 0 x[2,4,4,2]
   + 0 x[2,4,4,3] + 0 x[3,0,0,0] + 0 x[3,0,0,1] + 0 x[3,0,0,2]
   + 0 x[3,0,0,3] + 0 x[3,0,0,4] + 0 x[3,0,1,0] + 0 x[3,0,1,1]
   + 0 x[3,0,1,2] + 0 x[3,0,1,3] + 0 x[3,0,1,4] + 0 x[3,0,2,0]
   + 0 x[3,0,2,1] + 0 x[3,0,2,2] + 0 x[3,0,2,3] + 0 x[3,0,2,4]
   + 0 x[3,0,3,0] + 0 x[3,0,3,1] + 0 x[3,0,3,2] + 0 x[3,0,3,3]
   + 0 x[3,0,4,1] + 0 x[3,0,4,3] + 0 x[3,0,4,4] + 0 x[3,1,0,0]
   + 0 x[3,1,0,1] + 0 x[3,1,0,2] + 0 x[3,1,0,3] + 0 x[3,1,0,4]
   + 0 x[3,1,1,0] + 0 x[3,1,1,1] + 0 x[3,1,1,2] + 0 x[3,1,1,3]
   + 0 x[3,1,1,4] + 0 x[3,1,2,0] + 0 x[3,1,2,1] + 0 x[3,1,2,2]
   + 0 x[3,1,2,3] + 0 x[3,1,2,4] + 0 x[3,1,3,0] + 0 x[3,1,3,1]
   + 0 x[3,1,3,2] + 0 x[3,1,3,3] + 0 x[3,1,4,0] + 0 x[3,1,4,2]
   + 0 x[3,1,4,3] + 0 x[3,1,4,4] + 0 x[3,2,0,0] + 0 x[3,2,0,1]
   + 0 x[3,2,0,2] + 0 x[3,2,0,3] + 0 x[3,2,0,4] + 0 x[3,2,1,0]
   + 0 x[3,2,1,1] + 0 x[3,2,1,2] + 0 x[3,2,1,3] + 0 x[3,2,1,4]
   + 0 x[3,2,2,0] + 0 x[3,2,2,1] + 0 x[3,2,2,2] + 0 x[3,2,2,3]
   + 0 x[3,2,2,4] + 0 x[3,2,3,0] + 0 x[3,2,3,1] + 0 x[3,2,3,2]
   + 0 x[3,2,3,3] + 0 x[3,2,4,0] + 0 x[3,2,4,1] + 0 x[3,2,4,2]
   + 0 x[3,2,4,4] + 0 x[3,3,0,0] + 0 x[3,3,0,1] + 0 x[3,3,0,2]
   + 0 x[3,3,0,3] + 0 x[3,3,0,4] + 0 x[3,3,1,0] + 0 x[3,3,1,1]
   + 0 x[3,3,1,2] + 0 x[3,3,1,3] + 0 x[3,3,1,4] + 0 x[3,3,2,0]
   + 0 x[3,3,2,1] + 0 x[3,3,2,2] + 0 x[3,3,2,3] + 0 x[3,3,2,4]
   + 0 x[3,3,3,0] + 0 x[3,3,3,1] + 0 x[3,3,3,2] + 0 x[3,3,3,3]
   + 0 x[3,3,4,0] + 0 x[3,3,4,1] + 0 x[3,3,4,2] + 0 x[3,3,4,3]
   + 0 x[4,0,0,0] + 0 x[4,0,0,1] + 0 x[4,0,0,2] + 0 x[4,0,0,3]
   + 0 x[4,0,0,4] + 0 x[4,0,1,0] + 0 x[4,0,1,1] + 0 x[4,0,1,2]
   + 0 x[4,0,1,3] + 0 x[4,0,1,4] + 0 x[4,0,2,0] + 0 x[4,0,2,1]
   + 0 x[4,0,2,2] + 0 x[4,0,2,3] + 0 x[4,0,2,4] + 0 x[4,0,3,0]
   + 0 x[4,0,3,1] + 0 x[4,0,3,2] + 0 x[4,0,3,3] + 0 x[4,0,4,0]
   + 0 x[4,0,4,1] + 0 x[4,0,4,3] + 0 x[4,0,4,4] + 0 x[4,1,0,0]
   + 0 x[4,1,0,1] + 0 x[4,1,0,2] + 0 x[4,1,0,3] + 0 x[4,1,0,4]
   + 0 x[4,1,1,0] + 0 x[4,1,1,1] + 0 x[4,1,1,2] + 0 x[4,1,1,3]
   + 0 x[4,1,1,4] + 0 x[4,1,2,0] + 0 x[4,1,2,1] + 0 x[4,1,2,2]
   + 0 x[4,1,2,3] + 0 x[4,1,2,4] + 0 x[4,1,3,0] + 0 x[4,1,3,1]
   + 0 x[4,1,3,2] + 0 x[4,1,3,3] + 0 x[4,1,4,0] + 0 x[4,1,4,1]
   + 0 x[4,1,4,2] + 0 x[4,1,4,3] + 0 x[4,1,4,4] + 0 x[4,2,0,0]
   + 0 x[4,2,0,1] + 0 x[4,2,0,2] + 0 x[4,2,0,3] + 0 x[4,2,0,4]
   + 0 x[4,2,1,0] + 0 x[4,2,1,1] + 0 x[4,2,1,2] + 0 x[4,2,1,3]
   + 0 x[4,2,1,4] + 0 x[4,2,2,0] + 0 x[4,2,2,1] + 0 x[4,2,2,2]
   + 0 x[4,2,2,3] + 0 x[4,2,2,4] + 0 x[4,2,3,0] + 0 x[4,2,3,1]
   + 0 x[4,2,3,2] + 0 x[4,2,3,3] + 0 x[4,2,4,1] + 0 x[4,2,4,2]
   + 0 x[4,2,4,3] + 0 x[4,2,4,4] + 0 x[4,3,0,0] + 0 x[4,3,0,1]
   + 0 x[4,3,0,2] + 0 x[4,3,0,3] + 0 x[4,3,0,4] + 0 x[4,3,1,0]
   + 0 x[4,3,1,1] + 0 x[4,3,1,2] + 0 x[4,3,1,3] + 0 x[4,3,1,4]
   + 0 x[4,3,2,0] + 0 x[4,3,2,1] + 0 x[4,3,2,2] + 0 x[4,3,2,3]
   + 0 x[4,3,2,4] + 0 x[4,3,3,0] + 0 x[4,3,3,1] + 0 x[4,3,3,2]
   + 0 x[4,3,3,3] + 0 x[4,3,4,0] + 0 x[4,3,4,1] + 0 x[4,3,4,2]
   + 0 x[4,3,4,3] + 0 x[4,3,4,4] + 0 x[4,4,0,0] + 0 x[4,4,0,1]
   + 0 x[4,4,0,2] + 0 x[4,4,0,3] + 0 x[4,4,0,4] + 0 x[4,4,1,0]
   + 0 x[4,4,1,1] + 0 x[4,4,1,2] + 0 x[4,4,1,3] + 0 x[4,4,1,4]
   + 0 x[4,4,2,0] + 0 x[4,4,2,1] + 0 x[4,4,2,2] + 0 x[4,4,2,3]
   + 0 x[4,4,2,4] + 0 x[4,4,3,0] + 0 x[4,4,3,1] + 0 x[4,4,3,2]
   + 0 x[4,4,3,3] + 0 x[4,4,4,0] + 0 x[4,4,4,1] + 0 x[4,4,4,2]
   + 0 x[4,4,4,3] + 0 x[4,4,4,4] + Z_FO
Subject To
 assignment_job0_stage0_constraint: y[0,0,1] = 1
 assignment_job0_stage1_constraint: y[0,1,0] = 1
 assignment_job0_stage2_constraint: y[0,2,2] = 1
 assignment_job0_stage3_constraint: y[0,3,3] = 1
 assignment_job0_stage4_constraint: y[0,4,4] = 1
 assignment_job1_stage0_constraint: y[1,0,3] = 1
 assignment_job1_stage1_constraint: y[1,1,1] = 1
 assignment_job1_stage2_constraint: y[1,2,2] = 1
 assignment_job1_stage3_constraint: y[1,3,0] = 1
 assignment_job1_stage4_constraint: y[1,4,4] = 1
 assignment_job2_stage0_constraint: y[2,0,0] = 1
 assignment_job2_stage1_constraint: y[2,1,2] = 1
 assignment_job2_stage2_constraint: y[2,2,3] = 1
 assignment_job2_stage3_constraint: y[2,3,1] = 1
 assignment_job2_stage4_constraint: y[2,4,4] = 1
 assignment_job3_stage0_constraint: y[3,0,0] = 1
 assignment_job3_stage1_constraint: y[3,1,3] = 1
 assignment_job3_stage2_constraint: y[3,2,2] = 1
 assignment_job3_stage3_constraint: y[3,3,4] = 1
 assignment_job4_stage0_constraint: y[4,0,0] = 1
 assignment_job4_stage1_constraint: y[4,1,3] = 1
 assignment_job4_stage2_constraint: y[4,2,0] = 1
 assignment_job4_stage3_constraint: y[4,3,2] = 1
 assignment_job4_stage4_constraint: y[4,4,4] = 1
 start_time_job0_stage0_machine1_constraint1: - 1e+06 y[0,0,1] + s[0,0,1]
   <= 0
 start_time_job0_stage1_machine0_constraint1: - 1e+06 y[0,1,0] + s[0,1,0]
   <= 0
 start_time_job0_stage2_machine2_constraint1: - 1e+06 y[0,2,2] + s[0,2,2]
   <= 0
 start_time_job0_stage3_machine3_constraint1: - 1e+06 y[0,3,3] + s[0,3,3]
   <= 0
 start_time_job0_stage4_machine4_constraint1: - 1e+06 y[0,4,4] + s[0,4,4]
   <= 0
 start_time_job1_stage0_machine3_constraint1: - 1e+06 y[1,0,3] + s[1,0,3]
   <= 0
 start_time_job1_stage1_machine1_constraint1: - 1e+06 y[1,1,1] + s[1,1,1]
   <= 0
 start_time_job1_stage2_machine2_constraint1: - 1e+06 y[1,2,2] + s[1,2,2]
   <= 0
 start_time_job1_stage3_machine0_constraint1: - 1e+06 y[1,3,0] + s[1,3,0]
   <= 0
 start_time_job1_stage4_machine4_constraint1: - 1e+06 y[1,4,4] + s[1,4,4]
   <= 0
 start_time_job2_stage0_machine0_constraint1: - 1e+06 y[2,0,0] + s[2,0,0]
   <= 0
 start_time_job2_stage1_machine2_constraint1: - 1e+06 y[2,1,2] + s[2,1,2]
   <= 0
 start_time_job2_stage2_machine3_constraint1: - 1e+06 y[2,2,3] + s[2,2,3]
   <= 0
 start_time_job2_stage3_machine1_constraint1: - 1e+06 y[2,3,1] + s[2,3,1]
   <= 0
 start_time_job2_stage4_machine4_constraint1: - 1e+06 y[2,4,4] + s[2,4,4]
   <= 0
 start_time_job3_stage0_machine0_constraint1: - 1e+06 y[3,0,0] + s[3,0,0]
   <= 0
 start_time_job3_stage1_machine3_constraint1: - 1e+06 y[3,1,3] + s[3,1,3]
   <= 0
 start_time_job3_stage2_machine2_constraint1: - 1e+06 y[3,2,2] + s[3,2,2]
   <= 0
 start_time_job3_stage3_machine4_constraint1: - 1e+06 y[3,3,4] + s[3,3,4]
   <= 0
 start_time_job4_stage0_machine0_constraint1: - 1e+06 y[4,0,0] + s[4,0,0]
   <= 0
 start_time_job4_stage1_machine3_constraint1: - 1e+06 y[4,1,3] + s[4,1,3]
   <= 0
 start_time_job4_stage2_machine0_constraint1: - 1e+06 y[4,2,0] + s[4,2,0]
   <= 0
 start_time_job4_stage3_machine2_constraint1: - 1e+06 y[4,3,2] + s[4,3,2]
   <= 0
 start_time_job4_stage4_machine4_constraint1: - 1e+06 y[4,4,4] + s[4,4,4]
   <= 0
 precedence_between_1,1_to_0,0_if_x_[j,l,h,z,i]=1: - 1e+06 y[0,0,1]
   - 1e+06 y[1,1,1] - 1e+06 x[0,0,1,1] + s[0,0,1] - s[1,1,1]
   >= -2.998441e+06
 precedence_between_0,0_to_1,1_if_x_[j,l,h,z,i]=0: - 1e+06 y[0,0,1]
   - 1e+06 y[1,1,1] + 1e+06 x[0,0,1,1] - s[0,0,1] + s[1,1,1]
   >= -1.998421e+06
 precedence_between_2,3_to_0,0_if_x_[j,l,h,z,i]=1: - 1e+06 y[0,0,1]
   - 1e+06 y[2,3,1] - 1e+06 x[0,0,2,3] + s[0,0,1] - s[2,3,1]
   >= -2.997021e+06
 precedence_between_0,0_to_2,3_if_x_[j,l,h,z,i]=0: - 1e+06 y[0,0,1]
   - 1e+06 y[2,3,1] + 1e+06 x[0,0,2,3] - s[0,0,1] + s[2,3,1]
   >= -1.99854e+06
 precedence_between_1,3_to_0,1_if_x_[j,l,h,z,i]=1: - 1e+06 y[0,1,0]
   - 1e+06 y[1,3,0] - 1e+06 x[0,1,1,3] + s[0,1,0] - s[1,3,0]
   >= -2.998381e+06
 precedence_between_0,1_to_1,3_if_x_[j,l,h,z,i]=0: - 1e+06 y[0,1,0]
   - 1e+06 y[1,3,0] + 1e+06 x[0,1,1,3] - s[0,1,0] + s[1,3,0]
   >= -1.998381e+06
 precedence_between_2,0_to_0,1_if_x_[j,l,h,z,i]=1: - 1e+06 y[0,1,0]
   - 1e+06 y[2,0,0] - 1e+06 x[0,1,2,0] + s[0,1,0] - s[2,0,0]
   >= -2.99848e+06
 precedence_between_0,1_to_2,0_if_x_[j,l,h,z,i]=0: - 1e+06 y[0,1,0]
   - 1e+06 y[2,0,0] + 1e+06 x[0,1,2,0] - s[0,1,0] + s[2,0,0]
   >= -1.998401e+06
 precedence_between_3,0_to_0,1_if_x_[j,l,h,z,i]=1: - 1e+06 y[0,1,0]
   - 1e+06 y[3,0,0] - 1e+06 x[0,1,3,0] + s[0,1,0] - s[3,0,0]
   >= -2.996922e+06
 precedence_between_0,1_to_3,0_if_x_[j,l,h,z,i]=0: - 1e+06 y[0,1,0]
   - 1e+06 y[3,0,0] + 1e+06 x[0,1,3,0] - s[0,1,0] + s[3,0,0]
   >= -1.998421e+06
 precedence_between_4,0_to_0,1_if_x_[j,l,h,z,i]=1: - 1e+06 y[0,1,0]
   - 1e+06 y[4,0,0] - 1e+06 x[0,1,4,0] + s[0,1,0] - s[4,0,0]
   >= -2.9985e+06
 precedence_between_0,1_to_4,0_if_x_[j,l,h,z,i]=0: - 1e+06 y[0,1,0]
   - 1e+06 y[4,0,0] + 1e+06 x[0,1,4,0] - s[0,1,0] + s[4,0,0]
   >= -1.998461e+06
 precedence_between_4,2_to_0,1_if_x_[j,l,h,z,i]=1: - 1e+06 y[0,1,0]
   - 1e+06 y[4,2,0] - 1e+06 x[0,1,4,2] + s[0,1,0] - s[4,2,0]
   >= -2.998362e+06
 precedence_between_0,1_to_4,2_if_x_[j,l,h,z,i]=0: - 1e+06 y[0,1,0]
   - 1e+06 y[4,2,0] + 1e+06 x[0,1,4,2] - s[0,1,0] + s[4,2,0]
   >= -1.998401e+06
 precedence_between_1,2_to_0,2_if_x_[j,l,h,z,i]=1: - 1e+06 y[0,2,2]
   - 1e+06 y[1,2,2] - 1e+06 x[0,2,1,2] + s[0,2,2] - s[1,2,2]
   >= -2.998362e+06
 precedence_between_0,2_to_1,2_if_x_[j,l,h,z,i]=0: - 1e+06 y[0,2,2]
   - 1e+06 y[1,2,2] + 1e+06 x[0,2,1,2] - s[0,2,2] + s[1,2,2]
   >= -1.996922e+06
 precedence_between_2,1_to_0,2_if_x_[j,l,h,z,i]=1: - 1e+06 y[0,2,2]
   - 1e+06 y[2,1,2] - 1e+06 x[0,2,2,1] + s[0,2,2] - s[2,1,2]
   >= -2.99848e+06
 precedence_between_0,2_to_2,1_if_x_[j,l,h,z,i]=0: - 1e+06 y[0,2,2]
   - 1e+06 y[2,1,2] + 1e+06 x[0,2,2,1] - s[0,2,2] + s[2,1,2]
   >= -1.99704e+06
 precedence_between_3,2_to_0,2_if_x_[j,l,h,z,i]=1: - 1e+06 y[0,2,2]
   - 1e+06 y[3,2,2] - 1e+06 x[0,2,3,2] + s[0,2,2] - s[3,2,2]
   >= -2.997021e+06
 precedence_between_0,2_to_3,2_if_x_[j,l,h,z,i]=0: - 1e+06 y[0,2,2]
   - 1e+06 y[3,2,2] + 1e+06 x[0,2,3,2] - s[0,2,2] + s[3,2,2]
   >= -1.996941e+06
 precedence_between_4,3_to_0,2_if_x_[j,l,h,z,i]=1: - 1e+06 y[0,2,2]
   - 1e+06 y[4,3,2] - 1e+06 x[0,2,4,3] + s[0,2,2] - s[4,3,2]
   >= -2.998441e+06
 precedence_between_0,2_to_4,3_if_x_[j,l,h,z,i]=0: - 1e+06 y[0,2,2]
   - 1e+06 y[4,3,2] + 1e+06 x[0,2,4,3] - s[0,2,2] + s[4,3,2]
   >= -1.99706e+06
 precedence_between_1,0_to_0,3_if_x_[j,l,h,z,i]=1: - 1e+06 y[0,3,3]
   - 1e+06 y[1,0,3] - 1e+06 x[0,3,1,0] + s[0,3,3] - s[1,0,3]
   >= -2.99852e+06
 precedence_between_0,3_to_1,0_if_x_[j,l,h,z,i]=0: - 1e+06 y[0,3,3]
   - 1e+06 y[1,0,3] + 1e+06 x[0,3,1,0] - s[0,3,3] + s[1,0,3]
   >= -1.99706e+06
 precedence_between_2,2_to_0,3_if_x_[j,l,h,z,i]=1: - 1e+06 y[0,3,3]
   - 1e+06 y[2,2,3] - 1e+06 x[0,3,2,2] + s[0,3,3] - s[2,2,3]
   >= -2.99564e+06
 precedence_between_0,3_to_2,2_if_x_[j,l,h,z,i]=0: - 1e+06 y[0,3,3]
   - 1e+06 y[2,2,3] + 1e+06 x[0,3,2,2] - s[0,3,3] + s[2,2,3]
   >= -1.99708e+06
 precedence_between_3,1_to_0,3_if_x_[j,l,h,z,i]=1: - 1e+06 y[0,3,3]
   - 1e+06 y[3,1,3] - 1e+06 x[0,3,3,1] + s[0,3,3] - s[3,1,3]
   >= -2.996922e+06
 precedence_between_0,3_to_3,1_if_x_[j,l,h,z,i]=0: - 1e+06 y[0,3,3]
   - 1e+06 y[3,1,3] + 1e+06 x[0,3,3,1] - s[0,3,3] + s[3,1,3]
   >= -1.996922e+06
 precedence_between_4,1_to_0,3_if_x_[j,l,h,z,i]=1: - 1e+06 y[0,3,3]
   - 1e+06 y[4,1,3] - 1e+06 x[0,3,4,1] + s[0,3,3] - s[4,1,3]
   >= -2.998381e+06
 precedence_between_0,3_to_4,1_if_x_[j,l,h,z,i]=0: - 1e+06 y[0,3,3]
   - 1e+06 y[4,1,3] + 1e+06 x[0,3,4,1] - s[0,3,3] + s[4,1,3]
   >= -1.997021e+06
 precedence_between_1,4_to_0,4_if_x_[j,l,h,z,i]=1: - 1e+06 y[0,4,4]
   - 1e+06 y[1,4,4] - 1e+06 x[0,4,1,4] + s[0,4,4] - s[1,4,4]
   >= -2.998421e+06
 precedence_between_0,4_to_1,4_if_x_[j,l,h,z,i]=0: - 1e+06 y[0,4,4]
   - 1e+06 y[1,4,4] + 1e+06 x[0,4,1,4] - s[0,4,4] + s[1,4,4]
   >= -1.998362e+06
 precedence_between_2,4_to_0,4_if_x_[j,l,h,z,i]=1: - 1e+06 y[0,4,4]
   - 1e+06 y[2,4,4] - 1e+06 x[0,4,2,4] + s[0,4,4] - s[2,4,4]
   >= -2.99852e+06
 precedence_between_0,4_to_2,4_if_x_[j,l,h,z,i]=0: - 1e+06 y[0,4,4]
   - 1e+06 y[2,4,4] + 1e+06 x[0,4,2,4] - s[0,4,4] + s[2,4,4]
   >= -1.9985e+06
 precedence_between_3,3_to_0,4_if_x_[j,l,h,z,i]=1: - 1e+06 y[0,4,4]
   - 1e+06 y[3,3,4] - 1e+06 x[0,4,3,3] + s[0,4,4] - s[3,3,4]
   >= -2.998362e+06
 precedence_between_0,4_to_3,3_if_x_[j,l,h,z,i]=0: - 1e+06 y[0,4,4]
   - 1e+06 y[3,3,4] + 1e+06 x[0,4,3,3] - s[0,4,4] + s[3,3,4]
   >= -1.998461e+06
 precedence_between_4,4_to_0,4_if_x_[j,l,h,z,i]=1: - 1e+06 y[0,4,4]
   - 1e+06 y[4,4,4] - 1e+06 x[0,4,4,4] + s[0,4,4] - s[4,4,4]
   >= -2.996961e+06
 precedence_between_0,4_to_4,4_if_x_[j,l,h,z,i]=0: - 1e+06 y[0,4,4]
   - 1e+06 y[4,4,4] + 1e+06 x[0,4,4,4] - s[0,4,4] + s[4,4,4]
   >= -1.99852e+06
 precedence_between_2,2_to_1,0_if_x_[j,l,h,z,i]=1: - 1e+06 y[1,0,3]
   - 1e+06 y[2,2,3] - 1e+06 x[1,0,2,2] + s[1,0,3] - s[2,2,3]
   >= -2.995561e+06
 precedence_between_1,0_to_2,2_if_x_[j,l,h,z,i]=0: - 1e+06 y[1,0,3]
   - 1e+06 y[2,2,3] + 1e+06 x[1,0,2,2] - s[1,0,3] + s[2,2,3]
   >= -1.998401e+06
 precedence_between_3,1_to_1,0_if_x_[j,l,h,z,i]=1: - 1e+06 y[1,0,3]
   - 1e+06 y[3,1,3] - 1e+06 x[1,0,3,1] + s[1,0,3] - s[3,1,3]
   >= -2.996981e+06
 precedence_between_1,0_to_3,1_if_x_[j,l,h,z,i]=0: - 1e+06 y[1,0,3]
   - 1e+06 y[3,1,3] + 1e+06 x[1,0,3,1] - s[1,0,3] + s[3,1,3]
   >= -1.998381e+06
 precedence_between_4,1_to_1,0_if_x_[j,l,h,z,i]=1: - 1e+06 y[1,0,3]
   - 1e+06 y[4,1,3] - 1e+06 x[1,0,4,1] + s[1,0,3] - s[4,1,3]
   >= -2.998461e+06
 precedence_between_1,0_to_4,1_if_x_[j,l,h,z,i]=0: - 1e+06 y[1,0,3]
   - 1e+06 y[4,1,3] + 1e+06 x[1,0,4,1] - s[1,0,3] + s[4,1,3]
   >= -1.99852e+06
 precedence_between_2,3_to_1,1_if_x_[j,l,h,z,i]=1: - 1e+06 y[1,1,1]
   - 1e+06 y[2,3,1] - 1e+06 x[1,1,2,3] + s[1,1,1] - s[2,3,1]
   >= -2.996941e+06
 precedence_between_1,1_to_2,3_if_x_[j,l,h,z,i]=0: - 1e+06 y[1,1,1]
   - 1e+06 y[2,3,1] + 1e+06 x[1,1,2,3] - s[1,1,1] + s[2,3,1]
   >= -1.998441e+06
 precedence_between_2,1_to_1,2_if_x_[j,l,h,z,i]=1: - 1e+06 y[1,2,2]
   - 1e+06 y[2,1,2] - 1e+06 x[1,2,2,1] + s[1,2,2] - s[2,1,2]
   >= -2.9985e+06
 precedence_between_1,2_to_2,1_if_x_[j,l,h,z,i]=0: - 1e+06 y[1,2,2]
   - 1e+06 y[2,1,2] + 1e+06 x[1,2,2,1] - s[1,2,2] + s[2,1,2]
   >= -1.998381e+06
 precedence_between_3,2_to_1,2_if_x_[j,l,h,z,i]=1: - 1e+06 y[1,2,2]
   - 1e+06 y[3,2,2] - 1e+06 x[1,2,3,2] + s[1,2,2] - s[3,2,2]
   >= -2.99706e+06
 precedence_between_1,2_to_3,2_if_x_[j,l,h,z,i]=0: - 1e+06 y[1,2,2]
   - 1e+06 y[3,2,2] + 1e+06 x[1,2,3,2] - s[1,2,2] + s[3,2,2]
   >= -1.998401e+06
 precedence_between_4,3_to_1,2_if_x_[j,l,h,z,i]=1: - 1e+06 y[1,2,2]
   - 1e+06 y[4,3,2] - 1e+06 x[1,2,4,3] + s[1,2,2] - s[4,3,2]
   >= -2.99852e+06
 precedence_between_1,2_to_4,3_if_x_[j,l,h,z,i]=0: - 1e+06 y[1,2,2]
   - 1e+06 y[4,3,2] + 1e+06 x[1,2,4,3] - s[1,2,2] + s[4,3,2]
   >= -1.998401e+06
 precedence_between_2,0_to_1,3_if_x_[j,l,h,z,i]=1: - 1e+06 y[1,3,0]
   - 1e+06 y[2,0,0] - 1e+06 x[1,3,2,0] + s[1,3,0] - s[2,0,0]
   >= -2.998441e+06
 precedence_between_1,3_to_2,0_if_x_[j,l,h,z,i]=0: - 1e+06 y[1,3,0]
   - 1e+06 y[2,0,0] + 1e+06 x[1,3,2,0] - s[1,3,0] + s[2,0,0]
   >= -1.99854e+06
 precedence_between_3,0_to_1,3_if_x_[j,l,h,z,i]=1: - 1e+06 y[1,3,0]
   - 1e+06 y[3,0,0] - 1e+06 x[1,3,3,0] + s[1,3,0] - s[3,0,0]
   >= -2.996941e+06
 precedence_between_1,3_to_3,0_if_x_[j,l,h,z,i]=0: - 1e+06 y[1,3,0]
   - 1e+06 y[3,0,0] + 1e+06 x[1,3,3,0] - s[1,3,0] + s[3,0,0]
   >= -1.998381e+06
 precedence_between_4,0_to_1,3_if_x_[j,l,h,z,i]=1: - 1e+06 y[1,3,0]
   - 1e+06 y[4,0,0] - 1e+06 x[1,3,4,0] + s[1,3,0] - s[4,0,0]
   >= -2.9985e+06
 precedence_between_1,3_to_4,0_if_x_[j,l,h,z,i]=0: - 1e+06 y[1,3,0]
   - 1e+06 y[4,0,0] + 1e+06 x[1,3,4,0] - s[1,3,0] + s[4,0,0]
   >= -1.99854e+06
 precedence_between_4,2_to_1,3_if_x_[j,l,h,z,i]=1: - 1e+06 y[1,3,0]
   - 1e+06 y[4,2,0] - 1e+06 x[1,3,4,2] + s[1,3,0] - s[4,2,0]
   >= -2.998421e+06
 precedence_between_1,3_to_4,2_if_x_[j,l,h,z,i]=0: - 1e+06 y[1,3,0]
   - 1e+06 y[4,2,0] + 1e+06 x[1,3,4,2] - s[1,3,0] + s[4,2,0]
   >= -1.99852e+06
 precedence_between_2,4_to_1,4_if_x_[j,l,h,z,i]=1: - 1e+06 y[1,4,4]
   - 1e+06 y[2,4,4] - 1e+06 x[1,4,2,4] + s[1,4,4] - s[2,4,4]
   >= -2.998381e+06
 precedence_between_1,4_to_2,4_if_x_[j,l,h,z,i]=0: - 1e+06 y[1,4,4]
   - 1e+06 y[2,4,4] + 1e+06 x[1,4,2,4] - s[1,4,4] + s[2,4,4]
   >= -1.998362e+06
 precedence_between_3,3_to_1,4_if_x_[j,l,h,z,i]=1: - 1e+06 y[1,4,4]
   - 1e+06 y[3,3,4] - 1e+06 x[1,4,3,3] + s[1,4,4] - s[3,3,4]
   >= -2.998461e+06
 precedence_between_1,4_to_3,3_if_x_[j,l,h,z,i]=0: - 1e+06 y[1,4,4]
   - 1e+06 y[3,3,4] + 1e+06 x[1,4,3,3] - s[1,4,4] + s[3,3,4]
   >= -1.998401e+06
 precedence_between_4,4_to_1,4_if_x_[j,l,h,z,i]=1: - 1e+06 y[1,4,4]
   - 1e+06 y[4,4,4] - 1e+06 x[1,4,4,4] + s[1,4,4] - s[4,4,4]
   >= -2.996922e+06
 precedence_between_1,4_to_4,4_if_x_[j,l,h,z,i]=0: - 1e+06 y[1,4,4]
   - 1e+06 y[4,4,4] + 1e+06 x[1,4,4,4] - s[1,4,4] + s[4,4,4]
   >= -1.998441e+06
 precedence_between_3,0_to_2,0_if_x_[j,l,h,z,i]=1: - 1e+06 y[2,0,0]
   - 1e+06 y[3,0,0] - 1e+06 x[2,0,3,0] + s[2,0,0] - s[3,0,0]
   >= -2.996922e+06
 precedence_between_2,0_to_3,0_if_x_[j,l,h,z,i]=0: - 1e+06 y[2,0,0]
   - 1e+06 y[3,0,0] + 1e+06 x[2,0,3,0] - s[2,0,0] + s[3,0,0]
   >= -1.99848e+06
 precedence_between_4,0_to_2,0_if_x_[j,l,h,z,i]=1: - 1e+06 y[2,0,0]
   - 1e+06 y[4,0,0] - 1e+06 x[2,0,4,0] + s[2,0,0] - s[4,0,0]
   >= -2.99854e+06
 precedence_between_2,0_to_4,0_if_x_[j,l,h,z,i]=0: - 1e+06 y[2,0,0]
   - 1e+06 y[4,0,0] + 1e+06 x[2,0,4,0] - s[2,0,0] + s[4,0,0]
   >= -1.998362e+06
 precedence_between_4,2_to_2,0_if_x_[j,l,h,z,i]=1: - 1e+06 y[2,0,0]
   - 1e+06 y[4,2,0] - 1e+06 x[2,0,4,2] + s[2,0,0] - s[4,2,0]
   >= -2.998362e+06
 precedence_between_2,0_to_4,2_if_x_[j,l,h,z,i]=0: - 1e+06 y[2,0,0]
   - 1e+06 y[4,2,0] + 1e+06 x[2,0,4,2] - s[2,0,0] + s[4,2,0]
   >= -1.99848e+06
 precedence_between_3,2_to_2,1_if_x_[j,l,h,z,i]=1: - 1e+06 y[2,1,2]
   - 1e+06 y[3,2,2] - 1e+06 x[2,1,3,2] + s[2,1,2] - s[3,2,2]
   >= -2.99704e+06
 precedence_between_2,1_to_3,2_if_x_[j,l,h,z,i]=0: - 1e+06 y[2,1,2]
   - 1e+06 y[3,2,2] + 1e+06 x[2,1,3,2] - s[2,1,2] + s[3,2,2]
   >= -1.998401e+06
 precedence_between_4,3_to_2,1_if_x_[j,l,h,z,i]=1: - 1e+06 y[2,1,2]
   - 1e+06 y[4,3,2] - 1e+06 x[2,1,4,3] + s[2,1,2] - s[4,3,2]
   >= -2.998441e+06
 precedence_between_2,1_to_4,3_if_x_[j,l,h,z,i]=0: - 1e+06 y[2,1,2]
   - 1e+06 y[4,3,2] + 1e+06 x[2,1,4,3] - s[2,1,2] + s[4,3,2]
   >= -1.99852e+06
 precedence_between_3,1_to_2,2_if_x_[j,l,h,z,i]=1: - 1e+06 y[2,2,3]
   - 1e+06 y[3,1,3] - 1e+06 x[2,2,3,1] + s[2,2,3] - s[3,1,3]
   >= -2.997001e+06
 precedence_between_2,2_to_3,1_if_x_[j,l,h,z,i]=0: - 1e+06 y[2,2,3]
   - 1e+06 y[3,1,3] + 1e+06 x[2,2,3,1] - s[2,2,3] + s[3,1,3]
   >= -1.995521e+06
 precedence_between_4,1_to_2,2_if_x_[j,l,h,z,i]=1: - 1e+06 y[2,2,3]
   - 1e+06 y[4,1,3] - 1e+06 x[2,2,4,1] + s[2,2,3] - s[4,1,3]
   >= -2.998381e+06
 precedence_between_2,2_to_4,1_if_x_[j,l,h,z,i]=0: - 1e+06 y[2,2,3]
   - 1e+06 y[4,1,3] + 1e+06 x[2,2,4,1] - s[2,2,3] + s[4,1,3]
   >= -1.99564e+06
 precedence_between_3,3_to_2,4_if_x_[j,l,h,z,i]=1: - 1e+06 y[2,4,4]
   - 1e+06 y[3,3,4] - 1e+06 x[2,4,3,3] + s[2,4,4] - s[3,3,4]
   >= -2.998401e+06
 precedence_between_2,4_to_3,3_if_x_[j,l,h,z,i]=0: - 1e+06 y[2,4,4]
   - 1e+06 y[3,3,4] + 1e+06 x[2,4,3,3] - s[2,4,4] + s[3,3,4]
   >= -1.998381e+06
 precedence_between_4,4_to_2,4_if_x_[j,l,h,z,i]=1: - 1e+06 y[2,4,4]
   - 1e+06 y[4,4,4] - 1e+06 x[2,4,4,4] + s[2,4,4] - s[4,4,4]
   >= -2.997001e+06
 precedence_between_2,4_to_4,4_if_x_[j,l,h,z,i]=0: - 1e+06 y[2,4,4]
   - 1e+06 y[4,4,4] + 1e+06 x[2,4,4,4] - s[2,4,4] + s[4,4,4]
   >= -1.99848e+06
 precedence_between_4,0_to_3,0_if_x_[j,l,h,z,i]=1: - 1e+06 y[3,0,0]
   - 1e+06 y[4,0,0] - 1e+06 x[3,0,4,0] + s[3,0,0] - s[4,0,0]
   >= -2.99852e+06
 precedence_between_3,0_to_4,0_if_x_[j,l,h,z,i]=0: - 1e+06 y[3,0,0]
   - 1e+06 y[4,0,0] + 1e+06 x[3,0,4,0] - s[3,0,0] + s[4,0,0]
   >= -1.996961e+06
 precedence_between_4,2_to_3,0_if_x_[j,l,h,z,i]=1: - 1e+06 y[3,0,0]
   - 1e+06 y[4,2,0] - 1e+06 x[3,0,4,2] + s[3,0,0] - s[4,2,0]
   >= -2.998461e+06
 precedence_between_3,0_to_4,2_if_x_[j,l,h,z,i]=0: - 1e+06 y[3,0,0]
   - 1e+06 y[4,2,0] + 1e+06 x[3,0,4,2] - s[3,0,0] + s[4,2,0]
   >= -1.99708e+06
 precedence_between_4,1_to_3,1_if_x_[j,l,h,z,i]=1: - 1e+06 y[3,1,3]
   - 1e+06 y[4,1,3] - 1e+06 x[3,1,4,1] + s[3,1,3] - s[4,1,3]
   >= -2.99848e+06
 precedence_between_3,1_to_4,1_if_x_[j,l,h,z,i]=0: - 1e+06 y[3,1,3]
   - 1e+06 y[4,1,3] + 1e+06 x[3,1,4,1] - s[3,1,3] + s[4,1,3]
   >= -1.99704e+06
 precedence_between_4,3_to_3,2_if_x_[j,l,h,z,i]=1: - 1e+06 y[3,2,2]
   - 1e+06 y[4,3,2] - 1e+06 x[3,2,4,3] + s[3,2,2] - s[4,3,2]
   >= -2.998362e+06
 precedence_between_3,2_to_4,3_if_x_[j,l,h,z,i]=0: - 1e+06 y[3,2,2]
   - 1e+06 y[4,3,2] + 1e+06 x[3,2,4,3] - s[3,2,2] + s[4,3,2]
   >= -1.9971e+06
 precedence_between_4,4_to_3,3_if_x_[j,l,h,z,i]=1: - 1e+06 y[3,3,4]
   - 1e+06 y[4,4,4] - 1e+06 x[3,3,4,4] + s[3,3,4] - s[4,4,4]
   >= -2.99704e+06
 precedence_between_3,3_to_4,4_if_x_[j,l,h,z,i]=0: - 1e+06 y[3,3,4]
   - 1e+06 y[4,4,4] + 1e+06 x[3,3,4,4] - s[3,3,4] + s[4,4,4]
   >= -1.99852e+06
 precedence_between_4,2_to_4,0_if_x_[j,l,h,z,i]=1: - 1e+06 y[4,0,0]
   - 1e+06 y[4,2,0] - 1e+06 x[4,0,4,2] + s[4,0,0] - s[4,2,0]
   >= -2.998401e+06
 precedence_between_4,0_to_4,2_if_x_[j,l,h,z,i]=0: - 1e+06 y[4,0,0]
   - 1e+06 y[4,2,0] + 1e+06 x[4,0,4,2] - s[4,0,0] + s[4,2,0]
   >= -1.998421e+06
 precedence_between_4,0_to_4,2_if_x_[j,l,h,z,i]=1: - 1e+06 y[4,0,0]
   - 1e+06 y[4,2,0] - 1e+06 x[4,2,4,0] - s[4,0,0] + s[4,2,0]
   >= -2.998421e+06
 precedence_between_4,2_to_4,0_if_x_[j,l,h,z,i]=0: - 1e+06 y[4,0,0]
   - 1e+06 y[4,2,0] + 1e+06 x[4,2,4,0] + s[4,0,0] - s[4,2,0]
   >= -1.998401e+06
 start_time_domain_job0_stage0_machine1_constraint: s[0,0,1] >= 0
 start_time_domain_job0_stage1_machine0_constraint: s[0,1,0] >= 0
 start_time_domain_job0_stage2_machine2_constraint: s[0,2,2] >= 0
 start_time_domain_job0_stage3_machine3_constraint: s[0,3,3] >= 0
 start_time_domain_job0_stage4_machine4_constraint: s[0,4,4] >= 0
 initial_start_time_job0_stage0_machine4_constraint: - 480 y[0,4,4]
   + s[0,4,4] >= 0
 start_time_domain_job1_stage0_machine3_constraint: s[1,0,3] >= 0
 start_time_domain_job1_stage1_machine1_constraint: s[1,1,1] >= 0
 start_time_domain_job1_stage2_machine2_constraint: s[1,2,2] >= 0
 start_time_domain_job1_stage3_machine0_constraint: s[1,3,0] >= 0
 start_time_domain_job1_stage4_machine4_constraint: s[1,4,4] >= 0
 initial_start_time_job1_stage0_machine4_constraint: - 480 y[1,4,4]
   + s[1,4,4] >= 0
 start_time_domain_job2_stage0_machine0_constraint: s[2,0,0] >= 0
 start_time_domain_job2_stage1_machine2_constraint: s[2,1,2] >= 0
 start_time_domain_job2_stage2_machine3_constraint: s[2,2,3] >= 0
 start_time_domain_job2_stage3_machine1_constraint: s[2,3,1] >= 0
 start_time_domain_job2_stage4_machine4_constraint: s[2,4,4] >= 0
 initial_start_time_job2_stage0_machine4_constraint: - 960 y[2,4,4]
   + s[2,4,4] >= 0
 start_time_domain_job3_stage0_machine0_constraint: s[3,0,0] >= 0
 start_time_domain_job3_stage1_machine3_constraint: s[3,1,3] >= 0
 start_time_domain_job3_stage2_machine2_constraint: s[3,2,2] >= 0
 start_time_domain_job3_stage3_machine4_constraint: s[3,3,4] >= 0
 initial_start_time_job3_stage0_machine4_constraint: - 960 y[3,3,4]
   + s[3,3,4] >= 0
 start_time_domain_job4_stage0_machine0_constraint: s[4,0,0] >= 0
 start_time_domain_job4_stage1_machine3_constraint: s[4,1,3] >= 0
 start_time_domain_job4_stage2_machine0_constraint: s[4,2,0] >= 0
 start_time_domain_job4_stage3_machine2_constraint: s[4,3,2] >= 0
 start_time_domain_job4_stage4_machine4_constraint: s[4,4,4] >= 0
 initial_start_time_job4_stage0_machine4_constraint: - 480 y[4,4,4]
   + s[4,4,4] >= 0
 R175: - 1440 y[0,1,0] + s[0,0,1] - s[0,1,0] >= 0
 R176: - 2880 y[0,2,2] + s[0,1,0] - s[0,2,2] >= 0
 R177: - 2880 y[0,3,3] + s[0,2,2] - s[0,3,3] >= 0
 R178: - 1440 y[0,4,4] + s[0,3,3] - s[0,4,4] >= 0
 R179: - 1440 y[1,1,1] + s[1,0,3] - s[1,1,1] >= 0
 R180: - 1440 y[1,2,2] + s[1,1,1] - s[1,2,2] >= 0
 R181: - 1440 y[1,3,0] + s[1,2,2] - s[1,3,0] >= 0
 R182: - 1440 y[1,4,4] + s[1,3,0] - s[1,4,4] >= 0
 R183: - 1440 y[2,1,2] + s[2,0,0] - s[2,1,2] >= 0
 R184: - 4320 y[2,2,3] + s[2,1,2] - s[2,2,3] >= 0
 R185: - 2880 y[2,3,1] + s[2,2,3] - s[2,3,1] >= 0
 R186: - 1440 y[2,4,4] + s[2,3,1] - s[2,4,4] >= 0
 R187: - 2880 y[3,1,3] + s[3,0,0] - s[3,1,3] >= 0
 R188: - 2880 y[3,2,2] + s[3,1,3] - s[3,2,2] >= 0
 R189: - 1440 y[3,3,4] + s[3,2,2] - s[3,3,4] >= 0
 R190: - 1440 y[4,1,3] + s[4,0,0] - s[4,1,3] >= 0
 R191: - 1440 y[4,2,0] + s[4,1,3] - s[4,2,0] >= 0
 R192: - 1440 y[4,3,2] + s[4,2,0] - s[4,3,2] >= 0
 R193: - 2880 y[4,4,4] + s[4,3,2] - s[4,4,4] >= 0
 auxiliaryOF_constraint: 1440 y[0,0,1] + s[0,0,1] - 1e+06 C625 >= -995200
 auxiliaryOF_constraint: 1440 y[0,0,1] + s[0,0,1] - 1e+06 C625 <= 4800
 auxiliaryOF_constraint: 1440 y[1,0,3] + s[1,0,3] - 1e+06 C626 >= -994720
 auxiliaryOF_constraint: 1440 y[1,0,3] + s[1,0,3] - 1e+06 C626 <= 5280
 auxiliaryOF_constraint: 1440 y[2,0,0] + s[2,0,0] - 1e+06 C627 >= -994240
 auxiliaryOF_constraint: 1440 y[2,0,0] + s[2,0,0] - 1e+06 C627 <= 5760
 auxiliaryOF_constraint: 2880 y[3,0,0] + s[3,0,0] - 1e+06 C628 >= -994240
 auxiliaryOF_constraint: 2880 y[3,0,0] + s[3,0,0] - 1e+06 C628 <= 5760
 auxiliaryOF_constraint: 1440 y[4,0,0] + s[4,0,0] - 1e+06 C629 >= -994720
 auxiliaryOF_constraint: 1440 y[4,0,0] + s[4,0,0] - 1e+06 C629 <= 5280
 OF_constraint: Z_FO + 3360 C625 + 3840 C626 + 4320 C627 + 2880 C628
   + 3840 C629 + [ - s[0,0,1] * C625 - s[1,0,3] * C626 - s[2,0,0] * C627
   - s[3,0,0] * C628 - s[4,0,0] * C629 ] >= 0
Bounds
Binaries
 y[0,0,1] y[0,1,0] y[0,2,2] y[0,3,3] y[0,4,4] y[1,0,3] y[1,1,1] y[1,2,2]
 y[1,3,0] y[1,4,4] y[2,0,0] y[2,1,2] y[2,2,3] y[2,3,1] y[2,4,4] y[3,0,0]
 y[3,1,3] y[3,2,2] y[3,3,4] y[4,0,0] y[4,1,3] y[4,2,0] y[4,3,2] y[4,4,4]
 x[0,0,0,0] x[0,0,0,1] x[0,0,0,2] x[0,0,0,3] x[0,0,0,4] x[0,0,1,0]
 x[0,0,1,1] x[0,0,1,2] x[0,0,1,3] x[0,0,1,4] x[0,0,2,0] x[0,0,2,1]
 x[0,0,2,2] x[0,0,2,3] x[0,0,2,4] x[0,0,3,0] x[0,0,3,1] x[0,0,3,2]
 x[0,0,3,3] x[0,0,4,0] x[0,0,4,1] x[0,0,4,2] x[0,0,4,3] x[0,0,4,4]
 x[0,1,0,0] x[0,1,0,1] x[0,1,0,2] x[0,1,0,3] x[0,1,0,4] x[0,1,1,0]
 x[0,1,1,1] x[0,1,1,2] x[0,1,1,3] x[0,1,1,4] x[0,1,2,0] x[0,1,2,1]
 x[0,1,2,2] x[0,1,2,3] x[0,1,2,4] x[0,1,3,0] x[0,1,3,1] x[0,1,3,2]
 x[0,1,3,3] x[0,1,4,0] x[0,1,4,1] x[0,1,4,2] x[0,1,4,3] x[0,1,4,4]
 x[0,2,0,0] x[0,2,0,1] x[0,2,0,2] x[0,2,0,3] x[0,2,0,4] x[0,2,1,0]
 x[0,2,1,1] x[0,2,1,2] x[0,2,1,3] x[0,2,1,4] x[0,2,2,0] x[0,2,2,1]
 x[0,2,2,2] x[0,2,2,3] x[0,2,2,4] x[0,2,3,0] x[0,2,3,1] x[0,2,3,2]
 x[0,2,3,3] x[0,2,4,0] x[0,2,4,1] x[0,2,4,2] x[0,2,4,3] x[0,2,4,4]
 x[0,3,0,0] x[0,3,0,1] x[0,3,0,2] x[0,3,0,3] x[0,3,0,4] x[0,3,1,0]
 x[0,3,1,1] x[0,3,1,2] x[0,3,1,3] x[0,3,1,4] x[0,3,2,0] x[0,3,2,1]
 x[0,3,2,2] x[0,3,2,3] x[0,3,2,4] x[0,3,3,0] x[0,3,3,1] x[0,3,3,2]
 x[0,3,3,3] x[0,3,4,0] x[0,3,4,1] x[0,3,4,2] x[0,3,4,3] x[0,3,4,4]
 x[0,4,0,0] x[0,4,0,1] x[0,4,0,2] x[0,4,0,3] x[0,4,0,4] x[0,4,1,0]
 x[0,4,1,1] x[0,4,1,2] x[0,4,1,3] x[0,4,1,4] x[0,4,2,0] x[0,4,2,1]
 x[0,4,2,2] x[0,4,2,3] x[0,4,2,4] x[0,4,3,0] x[0,4,3,1] x[0,4,3,2]
 x[0,4,3,3] x[0,4,4,0] x[0,4,4,1] x[0,4,4,2] x[0,4,4,3] x[0,4,4,4]
 x[1,0,0,0] x[1,0,0,1] x[1,0,0,2] x[1,0,0,3] x[1,0,0,4] x[1,0,1,0]
 x[1,0,1,1] x[1,0,1,2] x[1,0,1,3] x[1,0,1,4] x[1,0,2,0] x[1,0,2,1]
 x[1,0,2,2] x[1,0,2,3] x[1,0,2,4] x[1,0,3,0] x[1,0,3,1] x[1,0,3,2]
 x[1,0,3,3] x[1,0,4,0] x[1,0,4,1] x[1,0,4,2] x[1,0,4,3] x[1,0,4,4]
 x[1,1,0,0] x[1,1,0,1] x[1,1,0,2] x[1,1,0,3] x[1,1,0,4] x[1,1,1,0]
 x[1,1,1,1] x[1,1,1,2] x[1,1,1,3] x[1,1,1,4] x[1,1,2,0] x[1,1,2,1]
 x[1,1,2,2] x[1,1,2,3] x[1,1,2,4] x[1,1,3,0] x[1,1,3,1] x[1,1,3,2]
 x[1,1,3,3] x[1,1,4,0] x[1,1,4,1] x[1,1,4,2] x[1,1,4,3] x[1,1,4,4]
 x[1,2,0,0] x[1,2,0,1] x[1,2,0,2] x[1,2,0,3] x[1,2,0,4] x[1,2,1,0]
 x[1,2,1,1] x[1,2,1,2] x[1,2,1,3] x[1,2,1,4] x[1,2,2,0] x[1,2,2,1]
 x[1,2,2,2] x[1,2,2,3] x[1,2,2,4] x[1,2,3,0] x[1,2,3,1] x[1,2,3,2]
 x[1,2,3,3] x[1,2,4,0] x[1,2,4,1] x[1,2,4,2] x[1,2,4,3] x[1,2,4,4]
 x[1,3,0,0] x[1,3,0,1] x[1,3,0,2] x[1,3,0,3] x[1,3,0,4] x[1,3,1,0]
 x[1,3,1,1] x[1,3,1,2] x[1,3,1,3] x[1,3,1,4] x[1,3,2,0] x[1,3,2,1]
 x[1,3,2,2] x[1,3,2,3] x[1,3,2,4] x[1,3,3,0] x[1,3,3,1] x[1,3,3,2]
 x[1,3,3,3] x[1,3,4,0] x[1,3,4,1] x[1,3,4,2] x[1,3,4,3] x[1,3,4,4]
 x[1,4,0,0] x[1,4,0,1] x[1,4,0,2] x[1,4,0,3] x[1,4,0,4] x[1,4,1,0]
 x[1,4,1,1] x[1,4,1,2] x[1,4,1,3] x[1,4,1,4] x[1,4,2,0] x[1,4,2,1]
 x[1,4,2,2] x[1,4,2,3] x[1,4,2,4] x[1,4,3,0] x[1,4,3,1] x[1,4,3,2]
 x[1,4,3,3] x[1,4,4,0] x[1,4,4,1] x[1,4,4,2] x[1,4,4,3] x[1,4,4,4]
 x[2,0,0,0] x[2,0,0,1] x[2,0,0,2] x[2,0,0,3] x[2,0,0,4] x[2,0,1,0]
 x[2,0,1,1] x[2,0,1,2] x[2,0,1,3] x[2,0,1,4] x[2,0,2,0] x[2,0,2,1]
 x[2,0,2,2] x[2,0,2,3] x[2,0,2,4] x[2,0,3,0] x[2,0,3,1] x[2,0,3,2]
 x[2,0,3,3] x[2,0,4,0] x[2,0,4,1] x[2,0,4,2] x[2,0,4,3] x[2,0,4,4]
 x[2,1,0,0] x[2,1,0,1] x[2,1,0,2] x[2,1,0,3] x[2,1,0,4] x[2,1,1,0]
 x[2,1,1,1] x[2,1,1,2] x[2,1,1,3] x[2,1,1,4] x[2,1,2,0] x[2,1,2,1]
 x[2,1,2,2] x[2,1,2,3] x[2,1,2,4] x[2,1,3,0] x[2,1,3,1] x[2,1,3,2]
 x[2,1,3,3] x[2,1,4,0] x[2,1,4,1] x[2,1,4,2] x[2,1,4,3] x[2,1,4,4]
 x[2,2,0,0] x[2,2,0,1] x[2,2,0,2] x[2,2,0,3] x[2,2,0,4] x[2,2,1,0]
 x[2,2,1,1] x[2,2,1,2] x[2,2,1,3] x[2,2,1,4] x[2,2,2,0] x[2,2,2,1]
 x[2,2,2,2] x[2,2,2,3] x[2,2,2,4] x[2,2,3,0] x[2,2,3,1] x[2,2,3,2]
 x[2,2,3,3] x[2,2,4,0] x[2,2,4,1] x[2,2,4,2] x[2,2,4,3] x[2,2,4,4]
 x[2,3,0,0] x[2,3,0,1] x[2,3,0,2] x[2,3,0,3] x[2,3,0,4] x[2,3,1,0]
 x[2,3,1,1] x[2,3,1,2] x[2,3,1,3] x[2,3,1,4] x[2,3,2,0] x[2,3,2,1]
 x[2,3,2,2] x[2,3,2,3] x[2,3,2,4] x[2,3,3,0] x[2,3,3,1] x[2,3,3,2]
 x[2,3,3,3] x[2,3,4,0] x[2,3,4,1] x[2,3,4,2] x[2,3,4,3] x[2,3,4,4]
 x[2,4,0,0] x[2,4,0,1] x[2,4,0,2] x[2,4,0,3] x[2,4,0,4] x[2,4,1,0]
 x[2,4,1,1] x[2,4,1,2] x[2,4,1,3] x[2,4,1,4] x[2,4,2,0] x[2,4,2,1]
 x[2,4,2,2] x[2,4,2,3] x[2,4,2,4] x[2,4,3,0] x[2,4,3,1] x[2,4,3,2]
 x[2,4,3,3] x[2,4,4,0] x[2,4,4,1] x[2,4,4,2] x[2,4,4,3] x[2,4,4,4]
 x[3,0,0,0] x[3,0,0,1] x[3,0,0,2] x[3,0,0,3] x[3,0,0,4] x[3,0,1,0]
 x[3,0,1,1] x[3,0,1,2] x[3,0,1,3] x[3,0,1,4] x[3,0,2,0] x[3,0,2,1]
 x[3,0,2,2] x[3,0,2,3] x[3,0,2,4] x[3,0,3,0] x[3,0,3,1] x[3,0,3,2]
 x[3,0,3,3] x[3,0,4,0] x[3,0,4,1] x[3,0,4,2] x[3,0,4,3] x[3,0,4,4]
 x[3,1,0,0] x[3,1,0,1] x[3,1,0,2] x[3,1,0,3] x[3,1,0,4] x[3,1,1,0]
 x[3,1,1,1] x[3,1,1,2] x[3,1,1,3] x[3,1,1,4] x[3,1,2,0] x[3,1,2,1]
 x[3,1,2,2] x[3,1,2,3] x[3,1,2,4] x[3,1,3,0] x[3,1,3,1] x[3,1,3,2]
 x[3,1,3,3] x[3,1,4,0] x[3,1,4,1] x[3,1,4,2] x[3,1,4,3] x[3,1,4,4]
 x[3,2,0,0] x[3,2,0,1] x[3,2,0,2] x[3,2,0,3] x[3,2,0,4] x[3,2,1,0]
 x[3,2,1,1] x[3,2,1,2] x[3,2,1,3] x[3,2,1,4] x[3,2,2,0] x[3,2,2,1]
 x[3,2,2,2] x[3,2,2,3] x[3,2,2,4] x[3,2,3,0] x[3,2,3,1] x[3,2,3,2]
 x[3,2,3,3] x[3,2,4,0] x[3,2,4,1] x[3,2,4,2] x[3,2,4,3] x[3,2,4,4]
 x[3,3,0,0] x[3,3,0,1] x[3,3,0,2] x[3,3,0,3] x[3,3,0,4] x[3,3,1,0]
 x[3,3,1,1] x[3,3,1,2] x[3,3,1,3] x[3,3,1,4] x[3,3,2,0] x[3,3,2,1]
 x[3,3,2,2] x[3,3,2,3] x[3,3,2,4] x[3,3,3,0] x[3,3,3,1] x[3,3,3,2]
 x[3,3,3,3] x[3,3,4,0] x[3,3,4,1] x[3,3,4,2] x[3,3,4,3] x[3,3,4,4]
 x[4,0,0,0] x[4,0,0,1] x[4,0,0,2] x[4,0,0,3] x[4,0,0,4] x[4,0,1,0]
 x[4,0,1,1] x[4,0,1,2] x[4,0,1,3] x[4,0,1,4] x[4,0,2,0] x[4,0,2,1]
 x[4,0,2,2] x[4,0,2,3] x[4,0,2,4] x[4,0,3,0] x[4,0,3,1] x[4,0,3,2]
 x[4,0,3,3] x[4,0,4,0] x[4,0,4,1] x[4,0,4,2] x[4,0,4,3] x[4,0,4,4]
 x[4,1,0,0] x[4,1,0,1] x[4,1,0,2] x[4,1,0,3] x[4,1,0,4] x[4,1,1,0]
 x[4,1,1,1] x[4,1,1,2] x[4,1,1,3] x[4,1,1,4] x[4,1,2,0] x[4,1,2,1]
 x[4,1,2,2] x[4,1,2,3] x[4,1,2,4] x[4,1,3,0] x[4,1,3,1] x[4,1,3,2]
 x[4,1,3,3] x[4,1,4,0] x[4,1,4,1] x[4,1,4,2] x[4,1,4,3] x[4,1,4,4]
 x[4,2,0,0] x[4,2,0,1] x[4,2,0,2] x[4,2,0,3] x[4,2,0,4] x[4,2,1,0]
 x[4,2,1,1] x[4,2,1,2] x[4,2,1,3] x[4,2,1,4] x[4,2,2,0] x[4,2,2,1]
 x[4,2,2,2] x[4,2,2,3] x[4,2,2,4] x[4,2,3,0] x[4,2,3,1] x[4,2,3,2]
 x[4,2,3,3] x[4,2,4,0] x[4,2,4,1] x[4,2,4,2] x[4,2,4,3] x[4,2,4,4]
 x[4,3,0,0] x[4,3,0,1] x[4,3,0,2] x[4,3,0,3] x[4,3,0,4] x[4,3,1,0]
 x[4,3,1,1] x[4,3,1,2] x[4,3,1,3] x[4,3,1,4] x[4,3,2,0] x[4,3,2,1]
 x[4,3,2,2] x[4,3,2,3] x[4,3,2,4] x[4,3,3,0] x[4,3,3,1] x[4,3,3,2]
 x[4,3,3,3] x[4,3,4,0] x[4,3,4,1] x[4,3,4,2] x[4,3,4,3] x[4,3,4,4]
 x[4,4,0,0] x[4,4,0,1] x[4,4,0,2] x[4,4,0,3] x[4,4,0,4] x[4,4,1,0]
 x[4,4,1,1] x[4,4,1,2] x[4,4,1,3] x[4,4,1,4] x[4,4,2,0] x[4,4,2,1]
 x[4,4,2,2] x[4,4,2,3] x[4,4,2,4] x[4,4,3,0] x[4,4,3,1] x[4,4,3,2]
 x[4,4,3,3] x[4,4,4,0] x[4,4,4,1] x[4,4,4,2] x[4,4,4,3] x[4,4,4,4] C625
 C626 C627 C628 C629
Generals
 Z_FO
End
